# Objective value = 69.9999991667606
WA1n 0
WA1p 0
WA2n 1
WA2p 0
WB1n 0
WB1p 0
WB2n 1
WB2p 0
WC1n 0
WC1p 0
WC2n 1
WC2p 0
WD1n 0
WD1p 1
WD2n 0
WD2p 1
WE1n 0
WE1p 2
WE2n 0
WE2p 0
WF1n 0
WF1p 3.0000001664879621e+00
WF2n 0
WF2p 9.9999966687463593e-01
WG1n 5.0000003330794023e+00
WG1p 0
WG2n 9.9999933354455806e-01
WG2p 0
WH1n 9.00000033322961
WH1p 0
WH2n 0
WH2p 0
WI1n 15
WI1p 0
WI2n 0
WI2p 0
WJ1n 0
WJ1p 1.5000000333125504e+01
WJ2n 0
WJ2p 0
WT1n 0
WT1p 7.9999999999997442e+00
WT2n 0
WT2p 0
100 110
a 1
b 1
c 1
d 1
e 1
f 1
g 1
h 1
i 1
j 1
k 1
l 1
m 1
n 1
o 1
p 1
q 0
r 0
s 1
t 1
u 1
v 1
